%%% static parameters %%%
timespan = 1;
Fact = [3];
Distr1 = [10];
Distr2 = [20];
Clients_N = [40];
Demand_W = [15];
Lt0 = [4];
Lt1 = [4];
SS_ = [0.85];
DS_D = [7];
K = [200];
MA = [500];
%%% dynamic parameters %%%
lost_ratio_sales_ret_th = 0.21811769910346734;
lost_ratio_sales_ret_w = 64;
lost_ratio_sales_dis_th = 0.7022299560429996;
lost_ratio_sales_dis_w = 30;
lost_ratio_sales_fac_th = 0.4665452335093929;
lost_ratio_sales_fac_w = 84;
stock_customer_MA_mean_relative_th = 0.41568015361730914;
stock_customer_MA_mean_relative_w = 78;
stock_distributor_MA_mean_relative_th = 0.9940529377409543;
stock_distributor_MA_mean_relative_w = 78;
stock_retailer_MA_mean_relative_th = 0.47154665815798236;
stock_retailer_MA_mean_relative_w = 88;
stock_factory_MA_mean_relative_th = 0.791162707496471;
stock_factory_MA_mean_relative_w = 97;
